RT is False
Default write of storage_offers_DA.csv just to have a file (but constraint should be inactive)
Reading model...
...model read.
creating competitive generators file...
...competitive generators recorded.
Loading data...
.. day-ahead data read.
Compiling instance...
...instance created.
Creating Offer Mitigation (model will solve as dispatch if TRUE)...
...storage offer mitigation file created
Converting model to MPEC...
...converted
MIP
NOTE: initial MIP solve with only storage competitive to get feasible solution
Solving...

Welcome to IBM(R) ILOG(R) CPLEX(R) Interactive Optimizer 12.9.0.0
  with Simplex, Mixed Integer & Barrier Optimizers
5725-A06 5725-A29 5724-Y48 5724-Y49 5724-Y54 5724-Y55 5655-Y21
Copyright IBM Corp. 1988, 2019.  All Rights Reserved.

Type 'help' for a list of available commands.
Type 'help' followed by a command name for more
information on commands.

CPLEX> Logfile 'cplex.log' closed.
Logfile 'C:\Users\Luke\Desktop\competitiveMPEC_1.16\logs\tmpzmltiw4c.cplex.log' open.
CPLEX> New value for parallel optimization mode: -1
CPLEX> New value for mixed integer optimality gap tolerance: 0.01
CPLEX> New value for feasibility tolerance: 1e-05
CPLEX> New value for deterministic time limit in ticks: 50000
CPLEX> Problem 'C:\Users\Luke\Desktop\competitiveMPEC_1.16\logs\tmpreoy2uwn.pyomo.lp' read.
Read time = 0.20 sec. (13.86 ticks)
CPLEX> Problem name         : C:\Users\Luke\Desktop\competitiveMPEC_1.16\logs\tmpreoy2uwn.pyomo.lp
Objective sense      : Maximize
Variables            :   53321  [Nneg: 49,  Box: 21806,  Free: 4368,
                                 Binary: 27098]
Objective nonzeros   :    8945
Linear constraints   :  122164  [Less: 40983,  Greater: 58612,  Equal: 22569]
  Nonzeros           :  288470
  RHS nonzeros       :   66947

Variables            : Min LB: -5000.000        Max UB: 5000.000       
Objective nonzeros   : Min   : 0.1000000        Max   : 795.1000       
Linear constraints   :
  Nonzeros           : Min   : 0.1000000        Max   : 2910000.       
  RHS nonzeros       : Min   : 0.1000000        Max   : 3000000.       
CPLEX> CPXPARAM_Parallel                                -1
CPXPARAM_Simplex_Tolerances_Feasibility          1.0000000000000001e-05
CPXPARAM_DetTimeLimit                            50000
CPXPARAM_MIP_Tolerances_MIPGap                   0.01
Tried aggregator 3 times.
MIP Presolve eliminated 88265 rows and 19095 columns.
MIP Presolve added 3313 rows and 0 columns.
MIP Presolve modified 24454 coefficients.
Aggregator did 12833 substitutions.
Reduced MIP has 24379 rows, 20811 columns, and 68353 nonzeros.
Reduced MIP has 8218 binaries, 0 generals, 0 SOSs, and 0 indicators.
Presolve time = 0.23 sec. (165.97 ticks)
Probing fixed 412 vars, tightened 5942 bounds.
Probing time = 0.05 sec. (20.90 ticks)
Tried aggregator 2 times.
MIP Presolve eliminated 920 rows and 826 columns.
MIP Presolve modified 2976 coefficients.
Aggregator did 46 substitutions.
Reduced MIP has 23413 rows, 19939 columns, and 65549 nonzeros.
Reduced MIP has 7805 binaries, 0 generals, 0 SOSs, and 0 indicators.
Presolve time = 0.09 sec. (88.57 ticks)
Probing fixed 0 vars, tightened 224 bounds.
Probing time = 0.08 sec. (20.81 ticks)
Clique table members: 38121.
MIP emphasis: balance optimality and feasibility.
MIP search method: dynamic search.
Parallel mode: opportunistic, using up to 24 threads.
Root relaxation solution time = 0.36 sec. (549.25 ticks)

        Nodes                                         Cuts/
   Node  Left     Objective  IInf  Best Integer    Best Bound    ItCnt     Gap

      0     0    23906.5043    84                  23906.5043     4550         
      0     0    23905.2289    16                    Cuts: 61     4578         
      0     0    23905.2289    12                     Cuts: 6     4582         
*     0+    0                        23786.2879    23905.2289             0.50%

Flow cuts applied:  37
Gomory fractional cuts applied:  16

Root node processing (before b&c):
  Real time             =    3.00 sec. (2360.04 ticks)
Parallel b&c, 24 threads:
  Real time             =    0.00 sec. (0.00 ticks)
  Sync time (average)   =    0.00 sec.
  Wait time (average)   =    0.00 sec.
                          ------------
Total (root+branch&cut) =    3.00 sec. (2360.04 ticks)

Solution pool: 1 solution saved.

MIP - Integer optimal, tolerance (0.01/1e-06):  Objective =  2.3786287902e+04
Current MIP best bound =  2.3894808334e+04 (gap = 108.52, 0.46%)
Solution time =    3.02 sec.  Iterations = 4582  Nodes = 0 (1)
Deterministic time = 2360.19 ticks  (782.56 ticks/sec)

CPLEX> Incumbent solution written to file 'C:\Users\Luke\Desktop\competitiveMPEC_1.16\logs\tmpdsy5_f41.cplex.sol'.
CPLEX> NOTE: no warmstart specified for MIP iteration, default behavior is true
MIP
NOTE: resolving with all competitive generators using storage-only solution to warmstart
Solving...

Welcome to IBM(R) ILOG(R) CPLEX(R) Interactive Optimizer 12.9.0.0
  with Simplex, Mixed Integer & Barrier Optimizers
5725-A06 5725-A29 5724-Y48 5724-Y49 5724-Y54 5724-Y55 5655-Y21
Copyright IBM Corp. 1988, 2019.  All Rights Reserved.

Type 'help' for a list of available commands.
Type 'help' followed by a command name for more
information on commands.

CPLEX> Logfile 'cplex.log' closed.
Logfile 'C:\Users\Luke\Desktop\competitiveMPEC_1.16\logs\tmpqtjo4ozj.cplex.log' open.
CPLEX> New value for parallel optimization mode: -1
CPLEX> New value for mixed integer optimality gap tolerance: 0.01
CPLEX> New value for feasibility tolerance: 1e-05
CPLEX> New value for deterministic time limit in ticks: 50000
CPLEX> Problem 'C:\Users\Luke\Desktop\competitiveMPEC_1.16\logs\tmp68v55i47.pyomo.lp' read.
Read time = 0.19 sec. (13.86 ticks)
CPLEX> MIP start file 'C:\Users\Luke\Desktop\competitiveMPEC_1.16\logs\tmp7kqqb_ks.cplex.mst' read.
CPLEX> Problem name         : C:\Users\Luke\Desktop\competitiveMPEC_1.16\logs\tmp68v55i47.pyomo.lp
Objective sense      : Maximize
Variables            :   53321  [Nneg: 49,  Box: 21806,  Free: 4368,
                                 Binary: 27098]
Objective nonzeros   :    8921
Linear constraints   :  122164  [Less: 40983,  Greater: 58612,  Equal: 22569]
  Nonzeros           :  288470
  RHS nonzeros       :   66947

Variables            : Min LB: -5000.000        Max UB: 5000.000       
Objective nonzeros   : Min   : 0.1000000        Max   : 795.1000       
Linear constraints   :
  Nonzeros           : Min   : 0.1000000        Max   : 2910000.       
  RHS nonzeros       : Min   : 0.1000000        Max   : 3000000.       
CPLEX> CPXPARAM_Parallel                                -1
CPXPARAM_Simplex_Tolerances_Feasibility          1.0000000000000001e-05
CPXPARAM_DetTimeLimit                            50000
CPXPARAM_MIP_Tolerances_MIPGap                   0.01
Warning:  No solution found from 1 MIP starts.
Retaining values of one MIP start for possible repair.
Tried aggregator 3 times.
MIP Presolve eliminated 88265 rows and 19095 columns.
MIP Presolve added 3313 rows and 0 columns.
MIP Presolve modified 24454 coefficients.
Aggregator did 12833 substitutions.
Reduced MIP has 24379 rows, 20811 columns, and 68353 nonzeros.
Reduced MIP has 8218 binaries, 0 generals, 0 SOSs, and 0 indicators.
Presolve time = 0.23 sec. (165.97 ticks)
Probing fixed 412 vars, tightened 5942 bounds.
Probing time = 0.05 sec. (20.90 ticks)
Tried aggregator 2 times.
MIP Presolve eliminated 920 rows and 826 columns.
MIP Presolve modified 2976 coefficients.
Aggregator did 46 substitutions.
Reduced MIP has 23413 rows, 19939 columns, and 65549 nonzeros.
Reduced MIP has 7805 binaries, 0 generals, 0 SOSs, and 0 indicators.
Presolve time = 0.09 sec. (88.58 ticks)
Probing fixed 0 vars, tightened 224 bounds.
Probing time = 0.08 sec. (20.81 ticks)
Clique table members: 38121.
MIP emphasis: balance optimality and feasibility.
MIP search method: dynamic search.
Parallel mode: opportunistic, using up to 24 threads.
Root relaxation solution time = 0.38 sec. (570.32 ticks)

        Nodes                                         Cuts/
   Node  Left     Objective  IInf  Best Integer    Best Bound    ItCnt     Gap

      0     0    95952.1260   230                  95952.1260     4787         
      0     0    95133.4703    97                   Cuts: 234     4923         
      0     0    95095.6755    98                    Cuts: 35     4962         
      0     0    95055.9950    87                    Cuts: 23     4979         
      0     0    95055.9950    84                    Cuts: 14     4985         
      0     0    95055.9950    70                 Flowcuts: 2     4988         
      0     0    95055.9950    69                     Cuts: 6     4989         
Repair heuristic found nothing.
      0    22    91177.9431    61                     Cuts: 6     5162         
Elapsed time = 4.86 sec. (3184.60 ticks, tree = 0.04 MB, solutions = 0)
    373   323    87088.2070    52                  93973.1889     7328         
    834   636    61092.3832    54                  93973.1889    10489         
   1184  1030    88105.0093    52                  93973.1889    15414         
   1697  1391    82665.5910    49                  93973.1889    21578         
   2195  1738    86771.8421    52                  93973.1889    27095         
   2761  1989    58755.9776    44                  93973.1889    35425         
   3253  2466    84135.3833    41                  93973.1889    43551         
   3721  2695    90311.3547    61                  93973.1889    47375         
   4163  2925    infeasible                        93973.1889    49745         
   5126  4218    86004.6707    55                  93972.8402    77955         
Elapsed time = 19.48 sec. (12028.77 ticks, tree = 35.51 MB, solutions = 0)
   5649   309    84135.4713    44                  93972.8402    81176         
   6964  1415    79619.0941    27                  93972.8402    89120         
*  8930+ 2891                        76515.1094    91882.0743            20.08%
   9150  3611    infeasible          76515.1094    91882.0743   106283   20.08%
* 10515+ 3356                        83494.8987    91692.0852             9.82%
* 10639+ 3454                        86046.6676    91692.0852             6.56%
  10949  3907    81160.7700     8    86046.6676    91692.0852   117553    6.56%
  12316  3646    83584.1179    26    86046.6676    91692.0852   126951    6.56%
  13581  4007    85152.7405    18    86046.6676    91692.0852   137517    6.56%
  14880  3002    85350.1959    41    86046.6676    91692.0852   144573    6.56%
* 15109+ 3378                        87077.3062    91692.0852             5.30%
  16266  2987    89260.3335    53    87077.3062    91692.0852   151752    5.30%
* 16417+ 3378                        87111.4258    91692.0852             5.26%
* 16491+ 3566                        89006.9654    91692.0852             3.02%
* 16734+ 3454                        90246.6778    91692.0852             1.60%
* 17042+ 3426                        90246.6778    91692.0852             1.60%
  17376  3422    89179.1832    34    90246.6778    91692.0852   160207    1.60%
* 17451+ 3378                        90253.0172    91692.0852             1.59%
* 17521+ 3454                        90253.0172    91692.0852             1.59%
  17521  3403    90246.6778     0    90253.0172    91692.0852   114998    1.59%
Elapsed time = 82.61 sec. (24531.64 ticks, tree = 232.75 MB, solutions = 93)
  17523  3475    89581.3176    41    90253.0172    91692.0852   115274    1.59%
  17528  3566    90253.0172     0    90253.0172    91692.0852   115741    1.59%
  17532  3590    85476.1923     0    90253.0172    91692.0852   115927    1.59%

Cover cuts applied:  22
Flow cuts applied:  51
Mixed integer rounding cuts applied:  7
Lift and project cuts applied:  3
Gomory fractional cuts applied:  8

Root node processing (before b&c):
  Real time             =    4.38 sec. (3174.29 ticks)
Parallel b&c, 24 threads:
  Real time             =   78.56 sec. (27230.18 ticks)
  Sync time (average)   =   22.88 sec.
  Wait time (average)   =    0.05 sec.
                          ------------
Total (root+branch&cut) =   82.94 sec. (30404.47 ticks)

Solution pool: 93 solutions saved.

MIP - Integer optimal, tolerance (0.01/1e-06):  Objective =  9.0253017186e+04
Current MIP best bound =  9.0719358007e+04 (gap = 466.341, 0.52%)
Solution time =   82.94 sec.  Iterations = 169680  Nodes = 17533 (247)
Deterministic time = 30404.62 ticks  (366.60 ticks/sec)

CPLEX> Incumbent solution written to file 'C:\Users\Luke\Desktop\competitiveMPEC_1.16\logs\tmp_36z09na.cplex.sol'.
CPLEX> Exporting results... 
